benchmarks/bfuzz0/1271617189168852069272396641119452170.smt2
(set-logic QF_FP)
(declare-const x0 (_ FloatingPoint 11 53))
(declare-const x1 (_ FloatingPoint 11 53))
(declare-const x2 (_ FloatingPoint 11 53))
(declare-const x3 (_ FloatingPoint 11 53))
(declare-const x4 (_ FloatingPoint 11 53))
(declare-const x5 (_ FloatingPoint 11 53))
(declare-const x6 (_ FloatingPoint 11 53))
(assert (fp.eq (fp.add RNE x0 x3) (fp.add RNE x6 x4)))
(assert (fp.eq (fp.mul RNE x5 x6) (fp.div RNE x1 x2)))
(assert (fp.leq (fp.add RNE x4 x2) (fp.div RNE x6 x0)))
(assert (fp.geq (fp.div RNE x2 x0) (fp.div RNE x6 x1)))
(assert (fp.leq (fp.neg x4) (fp.neg x5)))
(assert (fp.leq (fp.add RNE x4 x6) (fp.neg x2)))
(check-sat)
