db/data/1271617189168852069272396641119452170.z3.out
-------------------
2500.219475511
